34239
1 1 1 1 1 1 0 1 1 1 0 1 0 0 1 1 1 1 1 1 1 0 1 1 1 1 1 1 1 1
19 20 1 15 9 3 8 3 24 25 9 4 8 14 9 2 7 16 16 5 16 16 4 19 17 8 7 0 20 16 4 5 7 3 2 16 7 24 24 0 1 5 26 1 20 22 3 5 22 19 17 14 24 4 24 4 5 5 14 15 17 27 22 25 15 24 5 14 26 15 18 9 2 8 0 15 16 11 3 14 5 25 11 23 20 5 15 2 24 15 9 29 0 8 29 17 20 29 11 3 29 9 19 11 27 7 1 23 11 9 25 1 29 19 7 17 20 19 11 18 15 28 29 22 28 15 14 20 8 2 23 8 23 9 16 26 5 23 22 1 2 17 19 11 11 19 11 8 18 9 8 11 5 22 4 25 0 24 24 17 23 8 19 17 11 0 2 5 29 23 2 14 24 20 23 23 2 14 27 4 26 4 28 22 28 15 29 1 28 29 16 8 26 20 8 22 4 1 27 8